c FILE			: swaggert
c No. of vertices	: 16
c No. of directed edges	: 64
c Max. weight		: 1
c Min. weight		: 100
c A directed arc from u to v of weight w
c is represented below as ' a  u  v  w '
p sp 16 64
a 1 10 40
a 1 11 84
a 1 13 75
a 1 15 32
a 1 9 96
a 2 3 40
a 2 16 82
a 2 11 20
a 3 16 13
a 3 14 78
a 3 7 1
a 3 14 80
a 3 12 66
a 3 13 78
a 4 10 34
a 4 15 36
a 4 7 14
a 4 11 84
a 4 12 74
a 4 2 27
a 5 3 43
a 5 14 16
a 6 10 95
a 6 3 77
a 6 14 97
a 6 5 42
a 6 5 41
a 7 15 51
a 7 6 59
a 8 13 33
a 8 15 44
a 8 15 22
a 8 7 41
a 8 15 7
a 8 16 18
a 8 11 39
a 8 3 56
a 9 6 27
a 10 11 91
a 10 12 39
a 10 15 55
a 11 1 34
a 11 13 66
a 11 14 56
a 12 13 13
a 12 11 30
a 12 13 11
a 12 9 54
a 13 7 87
a 13 16 78
a 13 12 62
a 13 14 1
a 13 7 5
a 13 10 17
a 13 15 30
a 13 4 88
a 13 12 3
a 14 3 2
a 14 5 34
a 14 3 6
a 15 6 73
a 15 4 78
a 16 5 73
a 16 5 32
